<number of tasks>
100

<cycle time>
1000

<order strength>
0.597


<task times>
1 78
2 217
3 49
4 68
5 36
6 173
7 79
8 126
9 205
10 156
11 45
12 247
13 203
14 61
15 71
16 64
17 153
18 109
19 44
20 58
21 155
22 35
23 151
24 40
25 253
26 156
27 132
28 35
29 78
30 115
31 326
32 117
33 154
34 86
35 152
36 106
37 237
38 263
39 179
40 93
41 148
42 153
43 102
44 237
45 57
46 52
47 103
48 170
49 136
50 111
51 62
52 228
53 330
54 124
55 132
56 96
57 293
58 26
59 40
60 168
61 77
62 133
63 79
64 147
65 239
66 26
67 168
68 81
69 168
70 89
71 274
72 218
73 331
74 172
75 307
76 254
77 189
78 117
79 215
80 177
81 184
82 117
83 192
84 202
85 190
86 75
87 33
88 85
89 45
90 127
91 91
92 61
93 188
94 175
95 257
96 63
97 180
98 166
99 57
100 190

<precedence relations>
1,3
1,4
1,5
1,7
2,6
3,8
4,11
5,9
5,10
5,12
6,12
6,13
7,12
8,15
9,17
10,18
11,19
12,14
12,20
12,21
12,22
13,16
13,21
13,22
14,23
15,25
16,24
17,29
18,27
19,30
20,28
21,26
21,29
21,30
22,31
22,38
23,36
24,36
25,32
26,33
27,34
28,35
29,36
29,37
29,38
30,36
30,37
30,38
31,36
31,37
32,42
33,43
34,42
35,41
36,42
36,43
37,39
37,44
38,40
38,42
38,43
39,47
40,48
41,45
42,46
42,49
43,49
44,49
45,50
46,51
47,52
48,52
49,52
49,53
49,54
49,55
49,56
50,57
51,60
52,60
52,71
53,58
53,77
54,59
54,60
54,61
55,61
55,74
56,65
56,78
56,90
57,65
58,63
59,64
60,66
60,67
60,68
61,62
61,79
62,69
63,70
64,71
66,89
66,95
67,72
67,74
68,73
68,77
69,76
70,75
71,75
71,91
72,77
72,79
73,79
73,83
73,84
74,78
75,80
75,95
75,100
76,81
76,83
77,96
78,82
78,83
78,84
79,82
79,85
80,86
82,87
82,91
83,89
84,87
84,96
85,88
85,90
85,91
86,92
87,93
87,94
88,95
88,96
88,99
91,95
92,97
93,98
94,99
96,100

<end>
